param n := 60;
param c := 3000
param : V : p w :=
   0	  88	 379
   1	  80	 293
   2	   3	 328
   3	  41	 470
   4	  59	 251
   5	  40	 279
   6	  37	 411
   7	  42	 253
   8	  16	 336
   9	  23	 414
  10	   4	 276
  11	  56	 310
  12	   3	 418
  13	  11	 286
  14	  49	 296
  15	  24	 378
  16	  66	 296
  17	  44	 326
  18	  58	 428
  19	  70	 281
  20	  98	 291
  21	  74	 455
  22	  23	 264
  23	  41	 281
  24	  47	 494
  25	  89	 252
  26	  83	 254
  27	   3	 478
  28	  61	 258
  29	   8	 264
  30	  67	 409
  31	  58	 287
  32	   6	 304
  33	  45	 425
  34	  92	 256
  35	  73	 319
  36	  88	 402
  37	  78	 252
  38	  44	 346
  39	  44	 403
  40	  98	 283
  41	  38	 314
  42	  64	 401
  43	  20	 284
  44	  20	 315
  45	  13	 434
  46	  44	 282
  47	 100	 284
  48	  54	 496
  49	  32	 251
  50	   9	 253
  51	  90	 491
  52	   5	 253
  53	  16	 256
  54	  82	 498
  55	  97	 250
  56	  14	 252
  57	  35	 379
  58	  78	 264
  59	  28	 357
;

set E :=
   0	  23
   0	  53
   1	  41
   1	  57
   1	  58
   2	  26
   2	  43
   2	  46
   3	  16
   3	  19
   3	  29
   3	  31
   3	  32
   3	  35
   3	  41
   3	  42
   4	  14
   4	  20
   4	  27
   4	  28
   4	  34
   4	  58
   5	  13
   5	  26
   5	  51
   5	  53
   5	  55
   6	  21
   6	  23
   6	  37
   6	  38
   6	  41
   7	   8
   7	   9
   7	  10
   7	  13
   7	  36
   7	  40
   7	  49
   7	  53
   8	  39
   8	  45
   8	  49
   9	  10
   9	  19
   9	  29
   9	  35
   9	  46
   9	  52
  10	  18
  10	  36
  10	  47
  10	  55
  11	  14
  11	  16
  11	  19
  11	  21
  11	  33
  11	  45
  11	  46
  11	  59
  12	  15
  12	  21
  12	  35
  12	  44
  12	  45
  12	  51
  13	  25
  13	  36
  14	  15
  14	  20
  14	  21
  14	  36
  14	  53
  15	  34
  15	  39
  15	  59
  16	  29
  16	  39
  16	  46
  16	  49
  16	  52
  17	  20
  17	  23
  17	  26
  17	  31
  17	  39
  17	  48
  17	  55
  18	  25
  18	  43
  18	  45
  18	  48
  19	  24
  19	  29
  19	  32
  19	  49
  19	  54
  20	  50
  20	  53
  20	  58
  21	  24
  21	  27
  21	  36
  21	  40
  21	  41
  21	  53
  22	  58
  23	  30
  23	  35
  23	  36
  24	  27
  24	  36
  24	  39
  24	  53
  25	  32
  25	  33
  25	  41
  26	  48
  26	  52
  27	  46
  27	  49
  28	  34
  28	  37
  28	  46
  28	  48
  28	  57
  29	  33
  29	  43
  29	  47
  30	  38
  30	  42
  30	  43
  30	  50
  30	  59
  31	  33
  31	  43
  31	  57
  32	  42
  32	  45
  32	  56
  33	  38
  33	  40
  33	  54
  34	  40
  34	  54
  35	  48
  35	  54
  36	  42
  36	  51
  36	  57
  37	  40
  38	  50
  38	  59
  39	  43
  39	  55
  39	  57
  40	  49
  41	  46
  41	  51
  41	  58
  42	  47
  42	  53
  43	  52
  43	  59
  44	  52
  44	  54
  44	  59
  45	  49
  45	  50
  45	  58
  46	  49
  46	  53
  46	  55
  47	  55
  48	  51
  48	  57
  49	  50
  50	  59
  53	  57
;
